(set-logic HORN)
(declare-datatypes ((Nat_0 0)) (((Z_0 ) (Z_1 (unS_0 Nat_0)))))
(declare-fun diseqNat_0 (Nat_0 Nat_0) Bool)
(declare-fun add_0 (Nat_0 Nat_0 Nat_0) Bool)
(declare-datatypes ((Bin_0 0)) (((One_0 ) (ZeroAnd_0 (projZeroAnd_0 Bin_0)) (OneAnd_0 (projOneAnd_0 Bin_0)))))
(declare-fun toNat_0 (Nat_0 Bin_0) Bool)
(declare-fun s_0 (Bin_0 Bin_0) Bool)
(assert (forall ((x_25 Nat_0))
	(diseqNat_0 Z_0 (Z_1 x_25))))
(assert (forall ((x_26 Nat_0))
	(diseqNat_0 (Z_1 x_26) Z_0)))
(assert (forall ((x_27 Nat_0) (x_28 Nat_0))
	(=> (diseqNat_0 x_27 x_28) (diseqNat_0 (Z_1 x_27) (Z_1 x_28)))))
(assert (forall ((y_0 Nat_0))
	(add_0 y_0 Z_0 y_0)))
(assert (forall ((r_0 Nat_0) (x_16 Nat_0) (y_0 Nat_0))
	(=> (add_0 r_0 x_16 y_0) (add_0 (Z_1 r_0) (Z_1 x_16) y_0))))
(assert (forall ((x_17 Nat_0) (x_18 Nat_0) (x_3 Nat_0) (x_4 Nat_0) (ys_0 Bin_0))
	(=> (and (toNat_0 x_3 ys_0) (toNat_0 x_4 ys_0) (add_0 x_17 (Z_1 Z_0) x_3) (add_0 x_18 x_17 x_4)) (toNat_0 x_18 (OneAnd_0 ys_0)))))
(assert (forall ((x_19 Nat_0) (x_6 Nat_0) (x_7 Nat_0) (xs_0 Bin_0))
	(=> (and (toNat_0 x_6 xs_0) (toNat_0 x_7 xs_0) (add_0 x_19 x_6 x_7)) (toNat_0 x_19 (ZeroAnd_0 xs_0)))))
(assert (toNat_0 (Z_1 Z_0) One_0))
(assert (forall ((x_10 Bin_0) (ys_1 Bin_0))
	(=> (s_0 x_10 ys_1) (s_0 (ZeroAnd_0 x_10) (OneAnd_0 ys_1)))))
(assert (forall ((xs_1 Bin_0))
	(s_0 (OneAnd_0 xs_1) (ZeroAnd_0 xs_1))))
(assert (s_0 (ZeroAnd_0 One_0) One_0))
(assert (forall ((x_20 Nat_0) (x_13 Bin_0) (x_14 Nat_0) (x_15 Nat_0) (n_0 Bin_0))
	(=> (and (diseqNat_0 x_14 x_20) (s_0 x_13 n_0) (toNat_0 x_14 x_13) (toNat_0 x_15 n_0) (add_0 x_20 (Z_1 Z_0) x_15)) false)))
(check-sat)
(get-model)
